N = 198;
M = 225;
Edge_Start = [1, 1, 2, 3, 3, 4, 5, 6, 7, 8, 9, 9, 10, 11, 11, 13, 14, 15, 16, 17, 18, 19, 20, 21, 22, 23, 23, 24, 25, 25, 26, 27, 27, 28, 29, 29, 30, 31, 31, 32, 33, 34, 35, 35, 37, 37, 38, 39, 40, 40, 41, 42, 42, 43, 44, 45, 46, 46, 48, 48, 49, 50, 51, 52, 54, 54, 55, 56, 56, 57, 58, 58, 60, 61, 61, 62, 63, 63, 65, 66, 67, 67, 68, 69, 70, 71, 72, 73, 75, 76, 77, 77, 78, 79, 80, 80, 81, 82, 83, 84, 85, 86, 88, 88, 89, 90, 90, 92, 92, 93, 94, 95, 96, 97, 98, 98, 100, 101, 103, 103, 105, 106, 107, 107, 108, 109, 109, 110, 111, 111, 112, 113, 113, 114, 115, 115, 116, 117, 118, 120, 120, 121, 122, 122, 123, 124, 125, 126, 127, 128, 129, 130, 130, 131, 132, 132, 133, 134, 135, 136, 136, 137, 138, 138, 140, 143, 143, 144, 145, 145, 147, 148, 149, 150, 151, 151, 153, 154, 155, 155, 156, 157, 157, 158, 159, 160, 160, 161, 162, 162, 163, 164, 164, 165, 166, 166, 167, 168, 168, 169, 170, 170, 171, 172, 173, 174, 174, 176, 176, 178, 178, 181, 182, 183, 184, 186, 187, 189, 190, 191, 193, 194, 195, 196, 197];
Edge_End = [2, 20, 3, 4, 22, 5, 24, 7, 8, 9, 10, 28, 11, 12, 30, 32, 15, 16, 17, 36, 19, 38, 21, 41, 23, 24, 43, 25, 26, 45, 27, 28, 47, 29, 30, 49, 31, 32, 51, 33, 53, 35, 36, 55, 38, 57, 39, 59, 41, 60, 42, 43, 62, 44, 45, 46, 47, 66, 49, 68, 50, 51, 52, 72, 55, 74, 56, 57, 76, 58, 59, 78, 61, 62, 81, 63, 64, 83, 85, 67, 68, 87, 69, 70, 71, 72, 73, 74, 95, 77, 78, 97, 79, 99, 81, 100, 82, 83, 84, 85, 86, 87, 89, 108, 90, 91, 110, 93, 112, 94, 114, 96, 116, 98, 99, 118, 101, 102, 104, 123, 106, 107, 108, 127, 109, 110, 129, 111, 112, 131, 113, 114, 133, 115, 116, 135, 117, 118, 119, 121, 140, 122, 123, 142, 124, 144, 126, 127, 128, 148, 130, 131, 150, 132, 133, 152, 134, 135, 136, 137, 156, 138, 139, 158, 141, 144, 163, 145, 146, 165, 167, 149, 150, 151, 152, 171, 154, 155, 156, 175, 157, 158, 177, 159, 179, 161, 180, 162, 163, 182, 164, 165, 184, 166, 167, 186, 168, 169, 188, 170, 171, 190, 172, 192, 174, 175, 194, 177, 196, 179, 198, 182, 183, 184, 185, 187, 188, 190, 191, 192, 194, 195, 196, 197, 198];
L = [1, 14, 6, 11, 8, 14, 4, 16, 9, 18, 1, 4, 8, 9, 13, 2, 2, 15, 9, 14, 14, 13, 9, 16, 7, 18, 5, 13, 10, 17, 7, 15, 11, 11, 11, 14, 3, 19, 18, 8, 6, 12, 3, 19, 18, 3, 7, 10, 1, 16, 1, 18, 1, 1, 4, 4, 9, 6, 9, 16, 7, 1, 13, 11, 17, 18, 2, 1, 13, 9, 4, 19, 1, 2, 19, 5, 9, 2, 8, 14, 17, 2, 11, 5, 14, 16, 4, 10, 12, 3, 4, 19, 15, 16, 5, 6, 6, 10, 6, 18, 1, 5, 14, 3, 5, 14, 5, 9, 3, 13, 6, 14, 18, 3, 10, 4, 17, 11, 9, 2, 3, 14, 9, 5, 1, 8, 7, 6, 5, 15, 1, 12, 10, 16, 8, 14, 15, 15, 8, 5, 9, 17, 3, 2, 12, 6, 13, 8, 5, 5, 2, 10, 12, 16, 18, 10, 1, 15, 16, 7, 9, 12, 9, 18, 3, 6, 3, 12, 10, 2, 16, 7, 17, 1, 2, 17, 6, 4, 12, 2, 13, 12, 15, 10, 13, 14, 6, 8, 14, 4, 11, 17, 18, 14, 3, 16, 11, 4, 11, 7, 18, 10, 2, 1, 3, 1, 6, 1, 1, 19, 12, 13, 8, 9, 2, 10, 17, 10, 9, 9, 6, 18, 6, 19, 7];
T = [1, 15, 7, 12, 13, 6, 8, 18, 1, 7, 6, 3, 8, 6, 17, 1, 3, 1, 16, 11, 17, 10, 12, 18, 1, 18, 6, 1, 9, 28, 8, 9, 12, 17, 1, 8, 6, 16, 12, 10, 3, 4, 5, 19, 19, 5, 1, 7, 1, 11, 1, 22, 8, 1, 2, 11, 10, 1, 12, 13, 1, 1, 7, 9, 19, 18, 4, 3, 11, 1, 6, 20, 1, 1, 18, 12, 8, 11, 9, 12, 12, 5, 8, 1, 12, 22, 1, 2, 10, 1, 6, 12, 19, 18, 2, 1, 10, 13, 1, 14, 1, 7, 10, 5, 1, 16, 4, 1, 1, 16, 1, 26, 26, 3, 13, 1, 17, 17, 9, 7, 2, 13, 12, 8, 1, 3, 15, 8, 9, 12, 1, 14, 1, 12, 10, 21, 16, 9, 10, 2, 11, 9, 6, 7, 5, 1, 12, 13, 18, 2, 1, 10, 17, 17, 14, 7, 1, 14, 12, 4, 13, 18, 9, 17, 11, 2, 1, 11, 10, 1, 21, 1, 26, 1, 1, 22, 11, 1, 1, 1, 24, 7, 18, 12, 12, 11, 4, 3, 13, 1, 19, 23, 19, 15, 9, 13, 12, 1, 10, 7, 23, 9, 8, 1, 1, 1, 15, 5, 5, 17, 19, 12, 10, 9, 7, 5, 21, 5, 15, 13, 1, 24, 8, 18, 7];
Lower_Bound = [0, 1, 8, 20, 26, 90, 72, 71, 64, 70, 78, 84, 102, 199, 196, 195, 179, 193, 176, 15, 27, 21, 22, 34, 35, 44, 52, 61, 78, 79, 85, 101, 111, 167, 163, 168, 156, 166, 165, 46, 45, 46, 28, 29, 31, 42, 52, 80, 86, 87, 88, 95, 114, 125, 144, 148, 151, 152, 158, 56, 55, 54, 66, 74, 77, 43, 55, 67, 75, 76, 88, 104, 105, 107, 263, 159, 160, 166, 185, 75, 73, 83, 77, 78, 68, 67, 60, 264, 260, 259, 275, 239, 240, 224, 253, 227, 172, 175, 188, 76, 93, 110, 374, 383, 286, 284, 271, 259, 258, 255, 247, 238, 237, 223, 211, 201, 185, 176, 186, 384, 382, 373, 367, 362, 304, 292, 279, 290, 270, 269, 259, 252, 238, 239, 232, 244, 248, 266, 275, 395, 406, 380, 363, 361, 350, 360, 346, 288, 287, 261, 260, 259, 270, 259, 258, 257, 281, 283, 295, 391, 380, 377, 364, 372, 349, 334, 325, 313, 312, 305, 282, 290, 261, 260, 259, 304, 299, 324, 307, 395, 390, 378, 388, 391, 398, 347, 344, 323, 319, 314, 304, 291, 276, 275, 299, 307, 325, 332];
Upper_Bound = [1, 2, 9, 21, 27, 91, 73, 72, 65, 71, 79, 85, 103, 200, 197, 196, 180, 194, 177, 16, 28, 22, 23, 35, 36, 45, 53, 62, 79, 80, 86, 102, 112, 168, 164, 169, 157, 167, 166, 47, 46, 47, 29, 30, 32, 43, 53, 81, 87, 88, 89, 96, 115, 126, 145, 149, 152, 153, 159, 57, 56, 55, 67, 75, 78, 44, 56, 68, 76, 77, 89, 105, 106, 108, 264, 160, 161, 167, 186, 76, 74, 84, 78, 79, 69, 68, 61, 265, 261, 260, 276, 240, 241, 225, 254, 228, 173, 176, 189, 77, 94, 111, 375, 384, 287, 285, 272, 260, 259, 256, 248, 239, 238, 224, 212, 202, 186, 177, 187, 385, 383, 374, 368, 363, 305, 293, 280, 291, 271, 270, 260, 253, 239, 240, 233, 245, 249, 267, 276, 396, 407, 381, 364, 362, 351, 361, 347, 289, 288, 262, 261, 260, 271, 260, 259, 258, 282, 284, 296, 392, 381, 378, 365, 373, 350, 335, 326, 314, 313, 306, 283, 291, 262, 261, 260, 305, 300, 325, 308, 396, 391, 379, 389, 392, 399, 348, 345, 324, 320, 315, 305, 292, 277, 276, 300, 308, 326, 333];
Start = 1;
End = 198;
Time = 334;
